5 6 116
4 5 1 2 1 3 2 4 3 2 34 34 62 62 94 96 116 
3 4 1 4 2 5 4 8 48 48 90 90 112 
5 3 1 1 2 1 3 2 2 2 3 4 42 42 60 60 76 76 100 100 116 
5 1 1 5 2 5 3 1 4 3 3 10 30 35 61 61 83 83 95 97 111 
9 5 1 4 1 4 1 5 2 5 2 3 2 3 2 1 4 1 4 0 2 2 5 5 8 28 34 34 35 36 42 42 47 74 76 76 77 
13 3 1 1 1 1 1 2 1 2 1 1 2 1 2 2 2 2 2 5 4 5 4 4 3 3 3 0 4 4 7 7 10 10 12 12 14 29 30 30 36 57 62 62 64 82 83 83 88 90 96 96 97 
